
Gurobi 7.5.1 (linux64, Python) logging started Tue Dec 19 15:37:34 2017

Academic license - for non-commercial use only
Changed value of parameter Presolve to 2
   Prev: -1  Min: -1  Max: 2  Default: -1
Changed value of parameter MIPGap to 0.0
   Prev: 0.0001  Min: 0.0  Max: 1e+100  Default: 0.0001
Optimize a model with 1072 rows, 1294 columns and 3429 nonzeros
Variable types: 1 continuous, 1293 integer (1293 binary)
Coefficient statistics:
  Matrix range     [1e+00, 1e+00]
  Objective range  [1e+00, 3e+02]
  Bounds range     [1e+00, 1e+00]
  RHS range        [1e+00, 1e+02]
Found heuristic solution: objective -3261
Presolve removed 3 rows and 1 columns
Presolve time: 0.01s
Presolved: 1069 rows, 1293 columns, 3429 nonzeros
Variable types: 0 continuous, 1293 integer (1293 binary)
Presolved: 1069 rows, 1293 columns, 3429 nonzeros


Root relaxation: objective -1.664450e+04, 558 iterations, 0.01 seconds

    Nodes    |    Current Node    |     Objective Bounds      |     Work
 Expl Unexpl |  Obj  Depth IntInf | Incumbent    BestBd   Gap | It/Node Time

     0     0 -16644.500    0  224 -3261.0000 -16644.500   410%     -    0s
H    0     0                    -6610.000000 -16644.500   152%     -    0s
H    0     0                    -7983.000000 -16644.000   108%     -    0s
     0     0 -11515.178    0  757 -7983.0000 -11515.178  44.2%     -    0s
     0     0 -11511.005    0  742 -7983.0000 -11511.005  44.2%     -    0s
     0     0 -10898.608    0  879 -7983.0000 -10898.608  36.5%     -    1s
     0     0 -10851.517    0  864 -7983.0000 -10851.517  35.9%     -    1s
     0     0 -10838.738    0  872 -7983.0000 -10838.738  35.8%     -    1s
     0     0 -10834.481    0  870 -7983.0000 -10834.481  35.7%     -    1s
     0     0 -10577.146    0  911 -7983.0000 -10577.146  32.5%     -    1s
     0     0 -10512.712    0  937 -7983.0000 -10512.712  31.7%     -    1s
     0     0 -10488.110    0  934 -7983.0000 -10488.110  31.4%     -    1s
     0     0 -10483.016    0  938 -7983.0000 -10483.016  31.3%     -    1s
     0     0 -10449.521    0  878 -7983.0000 -10449.521  30.9%     -    1s
H    0     0                    -8209.000000 -10449.521  27.3%     -    1s
     0     0 -10440.823    0  877 -8209.0000 -10440.823  27.2%     -    1s
     0     0 -10433.528    0  887 -8209.0000 -10433.528  27.1%     -    2s
     0     0 -10433.528    0  875 -8209.0000 -10433.528  27.1%     -    2s
H    0     0                    -8814.000000 -10433.528  18.4%     -    2s
H    0     0                    -9536.000000 -10433.528  9.41%     -    2s
H    0     0                    -9588.000000 -10433.528  8.82%     -    2s
     0     2 -10433.528    0  874 -9588.0000 -10433.528  8.82%     -    2s
H   33    32                    -9589.000000 -10304.633  7.46%   292    3s
H   61    58                    -9708.000000 -10304.633  6.15%   189    4s
*   69    60              19    -9740.000000 -10304.633  5.80%   175    4s
    86    68 -9759.6667   18  556 -9740.0000 -10304.633  5.80%   160    5s
H  132    66                    -9829.000000 -10217.742  3.96%   158    7s
H  179    75                    -9849.000000 -10217.742  3.74%   141    7s
*  182    58               7    -9901.000000 -10217.742  3.20%   140    7s
   331    69 -9936.7777   11  728 -9901.0000 -10068.892  1.70%   150   10s
   540    77 -9947.8006    9  745 -9901.0000 -10029.712  1.30%   141   15s
   928    46 -9921.4138    9  637 -9901.0000 -9987.5250  0.87%   129   20s

Cutting planes:
  Gomory: 6
  MIR: 767
  Zero half: 31

Explored 1112 nodes (141027 simplex iterations) in 22.29 seconds
Thread count was 8 (of 8 available processors)

Solution count 10: -9901 -9849 -9829 ... -8209

Optimal solution found (tolerance 0.00e+00)
Best objective -9.901000000000e+03, best bound -9.901000000000e+03, gap 0.0000%

Gurobi 7.5.1 (linux64, Python) logging started Tue Dec 19 15:41:38 2017

Academic license - for non-commercial use only
Changed value of parameter Presolve to 2
   Prev: -1  Min: -1  Max: 2  Default: -1
Changed value of parameter MIPGap to 0.0
   Prev: 0.0001  Min: 0.0  Max: 1e+100  Default: 0.0001
Optimize a model with 340 rows, 416 columns and 1087 nonzeros
Variable types: 1 continuous, 415 integer (415 binary)
Coefficient statistics:
  Matrix range     [1e+00, 1e+00]
  Objective range  [1e+00, 3e+02]
  Bounds range     [1e+00, 1e+00]
  RHS range        [1e+00, 4e+01]
Found heuristic solution: objective -502
Presolve removed 3 rows and 1 columns
Presolve time: 0.00s
Presolved: 337 rows, 415 columns, 1087 nonzeros
Variable types: 0 continuous, 415 integer (415 binary)
Presolved: 337 rows, 415 columns, 1087 nonzeros


Root relaxation: objective -4.500500e+03, 140 iterations, 0.00 seconds

    Nodes    |    Current Node    |     Objective Bounds      |     Work
 Expl Unexpl |  Obj  Depth IntInf | Incumbent    BestBd   Gap | It/Node Time

     0     0 -4500.5000    0   78 -502.00000 -4500.5000   797%     -    0s
H    0     0                    -1527.000000 -4500.5000   195%     -    0s
H    0     0                    -1664.000000 -4500.5000   170%     -    0s
     0     0 -3091.2500    0  216 -1664.0000 -3091.2500  85.8%     -    0s
H    0     0                    -2245.000000 -3091.2500  37.7%     -    0s
H    0     0                    -2295.000000 -3091.2500  34.7%     -    0s
H    0     0                    -2348.000000 -3091.2500  31.7%     -    0s
     0     0 -2820.5000    0   96 -2348.0000 -2820.5000  20.1%     -    0s
     0     0 -2795.0000    0   88 -2348.0000 -2795.0000  19.0%     -    0s
     0     0 -2788.0000    0  114 -2348.0000 -2788.0000  18.7%     -    0s
     0     0 -2788.0000    0  114 -2348.0000 -2788.0000  18.7%     -    0s
H    0     0                    -2571.000000 -2788.0000  8.44%     -    0s
H    0     0                    -2685.000000 -2788.0000  3.84%     -    0s
     0     2 -2788.0000    0  114 -2685.0000 -2788.0000  3.84%     -    0s
*    6     6               3    -2763.000000 -2779.0000  0.58%  21.3    0s

Cutting planes:
  Gomory: 2
  MIR: 192
  Zero half: 30

Explored 15 nodes (1256 simplex iterations) in 0.17 seconds
Thread count was 8 (of 8 available processors)

Solution count 9: -2763 -2685 -2571 ... -502

Optimal solution found (tolerance 0.00e+00)
Best objective -2.763000000000e+03, best bound -2.763000000000e+03, gap 0.0000%

Gurobi 7.5.1 (linux64, Python) logging started Tue Dec 19 15:41:56 2017

Academic license - for non-commercial use only
Changed value of parameter Presolve to 2
   Prev: -1  Min: -1  Max: 2  Default: -1
Changed value of parameter MIPGap to 0.0
   Prev: 0.0001  Min: 0.0  Max: 1e+100  Default: 0.0001
Optimize a model with 340 rows, 416 columns and 1087 nonzeros
Variable types: 1 continuous, 415 integer (415 binary)
Coefficient statistics:
  Matrix range     [1e+00, 1e+00]
  Objective range  [1e+00, 3e+02]
  Bounds range     [1e+00, 1e+00]
  RHS range        [1e+00, 4e+01]
Found heuristic solution: objective -502
Presolve removed 3 rows and 1 columns
Presolve time: 0.00s
Presolved: 337 rows, 415 columns, 1087 nonzeros
Variable types: 0 continuous, 415 integer (415 binary)
Presolved: 337 rows, 415 columns, 1087 nonzeros


Root relaxation: objective -4.500500e+03, 140 iterations, 0.00 seconds

    Nodes    |    Current Node    |     Objective Bounds      |     Work
 Expl Unexpl |  Obj  Depth IntInf | Incumbent    BestBd   Gap | It/Node Time

     0     0 -4500.5000    0   78 -502.00000 -4500.5000   797%     -    0s
H    0     0                    -1527.000000 -4500.5000   195%     -    0s
H    0     0                    -1664.000000 -4500.5000   170%     -    0s
     0     0 -3091.2500    0  216 -1664.0000 -3091.2500  85.8%     -    0s
H    0     0                    -2245.000000 -3091.2500  37.7%     -    0s
H    0     0                    -2295.000000 -3091.2500  34.7%     -    0s
H    0     0                    -2348.000000 -3091.2500  31.7%     -    0s
     0     0 -2820.5000    0   96 -2348.0000 -2820.5000  20.1%     -    0s
     0     0 -2795.0000    0   88 -2348.0000 -2795.0000  19.0%     -    0s
     0     0 -2788.0000    0  114 -2348.0000 -2788.0000  18.7%     -    0s
     0     0 -2788.0000    0  114 -2348.0000 -2788.0000  18.7%     -    0s
H    0     0                    -2571.000000 -2788.0000  8.44%     -    0s
H    0     0                    -2685.000000 -2788.0000  3.84%     -    0s
     0     2 -2788.0000    0  114 -2685.0000 -2788.0000  3.84%     -    0s
*    6     6               3    -2763.000000 -2779.0000  0.58%  21.3    0s

Cutting planes:
  Gomory: 2
  MIR: 192
  Zero half: 30

Explored 15 nodes (1256 simplex iterations) in 0.12 seconds
Thread count was 8 (of 8 available processors)

Solution count 9: -2763 -2685 -2571 ... -502

Optimal solution found (tolerance 0.00e+00)
Best objective -2.763000000000e+03, best bound -2.763000000000e+03, gap 0.0000%

Gurobi 7.5.1 (linux64, Python) logging started Tue Dec 19 15:42:15 2017

Academic license - for non-commercial use only
Changed value of parameter Presolve to 2
   Prev: -1  Min: -1  Max: 2  Default: -1
Changed value of parameter MIPGap to 0.0
   Prev: 0.0001  Min: 0.0  Max: 1e+100  Default: 0.0001
Optimize a model with 340 rows, 416 columns and 1087 nonzeros
Variable types: 1 continuous, 415 integer (415 binary)
Coefficient statistics:
  Matrix range     [1e+00, 1e+00]
  Objective range  [1e+00, 3e+02]
  Bounds range     [1e+00, 1e+00]
  RHS range        [1e+00, 4e+01]
Found heuristic solution: objective -502
Presolve removed 3 rows and 1 columns
Presolve time: 0.00s
Presolved: 337 rows, 415 columns, 1087 nonzeros
Variable types: 0 continuous, 415 integer (415 binary)
Presolved: 337 rows, 415 columns, 1087 nonzeros


Root relaxation: objective -4.500500e+03, 140 iterations, 0.00 seconds

    Nodes    |    Current Node    |     Objective Bounds      |     Work
 Expl Unexpl |  Obj  Depth IntInf | Incumbent    BestBd   Gap | It/Node Time

     0     0 -4500.5000    0   78 -502.00000 -4500.5000   797%     -    0s
H    0     0                    -1527.000000 -4500.5000   195%     -    0s
H    0     0                    -1664.000000 -4500.5000   170%     -    0s
     0     0 -3091.2500    0  216 -1664.0000 -3091.2500  85.8%     -    0s
H    0     0                    -2245.000000 -3091.2500  37.7%     -    0s
H    0     0                    -2295.000000 -3091.2500  34.7%     -    0s
H    0     0                    -2348.000000 -3091.2500  31.7%     -    0s
     0     0 -2820.5000    0   96 -2348.0000 -2820.5000  20.1%     -    0s
     0     0 -2795.0000    0   88 -2348.0000 -2795.0000  19.0%     -    0s
     0     0 -2788.0000    0  114 -2348.0000 -2788.0000  18.7%     -    0s
     0     0 -2788.0000    0  114 -2348.0000 -2788.0000  18.7%     -    0s
H    0     0                    -2571.000000 -2788.0000  8.44%     -    0s
H    0     0                    -2685.000000 -2788.0000  3.84%     -    0s
     0     2 -2788.0000    0  114 -2685.0000 -2788.0000  3.84%     -    0s
*    6     6               3    -2763.000000 -2779.0000  0.58%  21.3    0s

Cutting planes:
  Gomory: 2
  MIR: 192
  Zero half: 30

Explored 15 nodes (1256 simplex iterations) in 0.13 seconds
Thread count was 8 (of 8 available processors)

Solution count 9: -2763 -2685 -2571 ... -502

Optimal solution found (tolerance 0.00e+00)
Best objective -2.763000000000e+03, best bound -2.763000000000e+03, gap 0.0000%

Gurobi 7.5.1 (linux64, Python) logging started Tue Dec 19 15:42:24 2017

Academic license - for non-commercial use only
Changed value of parameter Presolve to 2
   Prev: -1  Min: -1  Max: 2  Default: -1
Changed value of parameter MIPGap to 0.0
   Prev: 0.0001  Min: 0.0  Max: 1e+100  Default: 0.0001
Optimize a model with 340 rows, 416 columns and 1087 nonzeros
Variable types: 1 continuous, 415 integer (415 binary)
Coefficient statistics:
  Matrix range     [1e+00, 1e+00]
  Objective range  [1e+00, 3e+02]
  Bounds range     [1e+00, 1e+00]
  RHS range        [1e+00, 4e+01]
Found heuristic solution: objective -502
Presolve removed 3 rows and 1 columns
Presolve time: 0.00s
Presolved: 337 rows, 415 columns, 1087 nonzeros
Variable types: 0 continuous, 415 integer (415 binary)
Presolved: 337 rows, 415 columns, 1087 nonzeros


Root relaxation: objective -4.500500e+03, 140 iterations, 0.00 seconds

    Nodes    |    Current Node    |     Objective Bounds      |     Work
 Expl Unexpl |  Obj  Depth IntInf | Incumbent    BestBd   Gap | It/Node Time

     0     0 -4500.5000    0   78 -502.00000 -4500.5000   797%     -    0s
H    0     0                    -1527.000000 -4500.5000   195%     -    0s
H    0     0                    -1664.000000 -4500.5000   170%     -    0s
     0     0 -3091.2500    0  216 -1664.0000 -3091.2500  85.8%     -    0s
H    0     0                    -2245.000000 -3091.2500  37.7%     -    0s
H    0     0                    -2295.000000 -3091.2500  34.7%     -    0s
H    0     0                    -2348.000000 -3091.2500  31.7%     -    0s
     0     0 -2820.5000    0   96 -2348.0000 -2820.5000  20.1%     -    0s
     0     0 -2795.0000    0   88 -2348.0000 -2795.0000  19.0%     -    0s
     0     0 -2788.0000    0  114 -2348.0000 -2788.0000  18.7%     -    0s
     0     0 -2788.0000    0  114 -2348.0000 -2788.0000  18.7%     -    0s
H    0     0                    -2571.000000 -2788.0000  8.44%     -    0s
H    0     0                    -2685.000000 -2788.0000  3.84%     -    0s
     0     2 -2788.0000    0  114 -2685.0000 -2788.0000  3.84%     -    0s
*    6     6               3    -2763.000000 -2779.0000  0.58%  21.3    0s

Cutting planes:
  Gomory: 2
  MIR: 192
  Zero half: 30

Explored 15 nodes (1256 simplex iterations) in 0.13 seconds
Thread count was 8 (of 8 available processors)

Solution count 9: -2763 -2685 -2571 ... -502

Optimal solution found (tolerance 0.00e+00)
Best objective -2.763000000000e+03, best bound -2.763000000000e+03, gap 0.0000%

Gurobi 7.5.1 (linux64, Python) logging started Tue Dec 19 15:42:37 2017

Academic license - for non-commercial use only
Changed value of parameter Presolve to 2
   Prev: -1  Min: -1  Max: 2  Default: -1
Changed value of parameter MIPGap to 0.0
   Prev: 0.0001  Min: 0.0  Max: 1e+100  Default: 0.0001
Optimize a model with 340 rows, 416 columns and 1087 nonzeros
Variable types: 1 continuous, 415 integer (415 binary)
Coefficient statistics:
  Matrix range     [1e+00, 1e+00]
  Objective range  [1e+00, 3e+02]
  Bounds range     [1e+00, 1e+00]
  RHS range        [1e+00, 4e+01]
Found heuristic solution: objective -502
Presolve removed 3 rows and 1 columns
Presolve time: 0.00s
Presolved: 337 rows, 415 columns, 1087 nonzeros
Variable types: 0 continuous, 415 integer (415 binary)
Presolved: 337 rows, 415 columns, 1087 nonzeros


Root relaxation: objective -4.500500e+03, 140 iterations, 0.00 seconds

    Nodes    |    Current Node    |     Objective Bounds      |     Work
 Expl Unexpl |  Obj  Depth IntInf | Incumbent    BestBd   Gap | It/Node Time

     0     0 -4500.5000    0   78 -502.00000 -4500.5000   797%     -    0s
H    0     0                    -1527.000000 -4500.5000   195%     -    0s
H    0     0                    -1664.000000 -4500.5000   170%     -    0s
     0     0 -3091.2500    0  216 -1664.0000 -3091.2500  85.8%     -    0s
H    0     0                    -2245.000000 -3091.2500  37.7%     -    0s
H    0     0                    -2295.000000 -3091.2500  34.7%     -    0s
H    0     0                    -2348.000000 -3091.2500  31.7%     -    0s
     0     0 -2820.5000    0   96 -2348.0000 -2820.5000  20.1%     -    0s
     0     0 -2795.0000    0   88 -2348.0000 -2795.0000  19.0%     -    0s
     0     0 -2788.0000    0  114 -2348.0000 -2788.0000  18.7%     -    0s
     0     0 -2788.0000    0  114 -2348.0000 -2788.0000  18.7%     -    0s
H    0     0                    -2571.000000 -2788.0000  8.44%     -    0s
H    0     0                    -2685.000000 -2788.0000  3.84%     -    0s
     0     2 -2788.0000    0  114 -2685.0000 -2788.0000  3.84%     -    0s
*    6     6               3    -2763.000000 -2779.0000  0.58%  21.3    0s

Cutting planes:
  Gomory: 2
  MIR: 192
  Zero half: 30

Explored 15 nodes (1256 simplex iterations) in 0.12 seconds
Thread count was 8 (of 8 available processors)

Solution count 9: -2763 -2685 -2571 ... -502

Optimal solution found (tolerance 0.00e+00)
Best objective -2.763000000000e+03, best bound -2.763000000000e+03, gap 0.0000%

Gurobi 7.5.1 (linux64, Python) logging started Tue Dec 19 15:42:44 2017

Academic license - for non-commercial use only
Changed value of parameter Presolve to 2
   Prev: -1  Min: -1  Max: 2  Default: -1
Changed value of parameter MIPGap to 0.0
   Prev: 0.0001  Min: 0.0  Max: 1e+100  Default: 0.0001
Optimize a model with 340 rows, 416 columns and 1087 nonzeros
Variable types: 1 continuous, 415 integer (415 binary)
Coefficient statistics:
  Matrix range     [1e+00, 1e+00]
  Objective range  [1e+00, 3e+02]
  Bounds range     [1e+00, 1e+00]
  RHS range        [1e+00, 4e+01]
Found heuristic solution: objective -502
Presolve removed 3 rows and 1 columns
Presolve time: 0.00s
Presolved: 337 rows, 415 columns, 1087 nonzeros
Variable types: 0 continuous, 415 integer (415 binary)
Presolved: 337 rows, 415 columns, 1087 nonzeros


Root relaxation: objective -4.500500e+03, 140 iterations, 0.00 seconds

    Nodes    |    Current Node    |     Objective Bounds      |     Work
 Expl Unexpl |  Obj  Depth IntInf | Incumbent    BestBd   Gap | It/Node Time

     0     0 -4500.5000    0   78 -502.00000 -4500.5000   797%     -    0s
H    0     0                    -1527.000000 -4500.5000   195%     -    0s
H    0     0                    -1664.000000 -4500.5000   170%     -    0s
     0     0 -3091.2500    0  216 -1664.0000 -3091.2500  85.8%     -    0s
H    0     0                    -2245.000000 -3091.2500  37.7%     -    0s
H    0     0                    -2295.000000 -3091.2500  34.7%     -    0s
H    0     0                    -2348.000000 -3091.2500  31.7%     -    0s
     0     0 -2820.5000    0   96 -2348.0000 -2820.5000  20.1%     -    0s
     0     0 -2795.0000    0   88 -2348.0000 -2795.0000  19.0%     -    0s
     0     0 -2788.0000    0  114 -2348.0000 -2788.0000  18.7%     -    0s
     0     0 -2788.0000    0  114 -2348.0000 -2788.0000  18.7%     -    0s
H    0     0                    -2571.000000 -2788.0000  8.44%     -    0s
H    0     0                    -2685.000000 -2788.0000  3.84%     -    0s
     0     2 -2788.0000    0  114 -2685.0000 -2788.0000  3.84%     -    0s
*    6     6               3    -2763.000000 -2779.0000  0.58%  21.3    0s

Cutting planes:
  Gomory: 2
  MIR: 192
  Zero half: 30

Explored 15 nodes (1256 simplex iterations) in 0.15 seconds
Thread count was 8 (of 8 available processors)

Solution count 9: -2763 -2685 -2571 ... -502

Optimal solution found (tolerance 0.00e+00)
Best objective -2.763000000000e+03, best bound -2.763000000000e+03, gap 0.0000%

Gurobi 7.5.1 (linux64, Python) logging started Tue Dec 19 15:43:02 2017

Academic license - for non-commercial use only
Changed value of parameter Presolve to 2
   Prev: -1  Min: -1  Max: 2  Default: -1
Changed value of parameter MIPGap to 0.0
   Prev: 0.0001  Min: 0.0  Max: 1e+100  Default: 0.0001
Optimize a model with 340 rows, 416 columns and 1087 nonzeros
Variable types: 1 continuous, 415 integer (415 binary)
Coefficient statistics:
  Matrix range     [1e+00, 1e+00]
  Objective range  [1e+00, 3e+02]
  Bounds range     [1e+00, 1e+00]
  RHS range        [1e+00, 4e+01]
Found heuristic solution: objective -502
Presolve removed 3 rows and 1 columns
Presolve time: 0.00s
Presolved: 337 rows, 415 columns, 1087 nonzeros
Variable types: 0 continuous, 415 integer (415 binary)
Presolved: 337 rows, 415 columns, 1087 nonzeros


Root relaxation: objective -4.500500e+03, 140 iterations, 0.00 seconds

    Nodes    |    Current Node    |     Objective Bounds      |     Work
 Expl Unexpl |  Obj  Depth IntInf | Incumbent    BestBd   Gap | It/Node Time

     0     0 -4500.5000    0   78 -502.00000 -4500.5000   797%     -    0s
H    0     0                    -1527.000000 -4500.5000   195%     -    0s
H    0     0                    -1664.000000 -4500.5000   170%     -    0s
     0     0 -3091.2500    0  216 -1664.0000 -3091.2500  85.8%     -    0s
H    0     0                    -2245.000000 -3091.2500  37.7%     -    0s
H    0     0                    -2295.000000 -3091.2500  34.7%     -    0s
H    0     0                    -2348.000000 -3091.2500  31.7%     -    0s
     0     0 -2820.5000    0   96 -2348.0000 -2820.5000  20.1%     -    0s
     0     0 -2795.0000    0   88 -2348.0000 -2795.0000  19.0%     -    0s
     0     0 -2788.0000    0  114 -2348.0000 -2788.0000  18.7%     -    0s
     0     0 -2788.0000    0  114 -2348.0000 -2788.0000  18.7%     -    0s
H    0     0                    -2571.000000 -2788.0000  8.44%     -    0s
H    0     0                    -2685.000000 -2788.0000  3.84%     -    0s
     0     2 -2788.0000    0  114 -2685.0000 -2788.0000  3.84%     -    0s
*    6     6               3    -2763.000000 -2779.0000  0.58%  21.3    0s

Cutting planes:
  Gomory: 2
  MIR: 192
  Zero half: 30

Explored 15 nodes (1256 simplex iterations) in 0.12 seconds
Thread count was 8 (of 8 available processors)

Solution count 9: -2763 -2685 -2571 ... -502

Optimal solution found (tolerance 0.00e+00)
Best objective -2.763000000000e+03, best bound -2.763000000000e+03, gap 0.0000%

Gurobi 7.5.1 (linux64, Python) logging started Tue Dec 19 15:43:11 2017

Academic license - for non-commercial use only
Changed value of parameter Presolve to 2
   Prev: -1  Min: -1  Max: 2  Default: -1
Changed value of parameter MIPGap to 0.0
   Prev: 0.0001  Min: 0.0  Max: 1e+100  Default: 0.0001
Optimize a model with 340 rows, 416 columns and 1087 nonzeros
Variable types: 1 continuous, 415 integer (415 binary)
Coefficient statistics:
  Matrix range     [1e+00, 1e+00]
  Objective range  [1e+00, 3e+02]
  Bounds range     [1e+00, 1e+00]
  RHS range        [1e+00, 4e+01]
Found heuristic solution: objective -502
Presolve removed 3 rows and 1 columns
Presolve time: 0.00s
Presolved: 337 rows, 415 columns, 1087 nonzeros
Variable types: 0 continuous, 415 integer (415 binary)
Presolved: 337 rows, 415 columns, 1087 nonzeros


Root relaxation: objective -4.500500e+03, 140 iterations, 0.00 seconds

    Nodes    |    Current Node    |     Objective Bounds      |     Work
 Expl Unexpl |  Obj  Depth IntInf | Incumbent    BestBd   Gap | It/Node Time

     0     0 -4500.5000    0   78 -502.00000 -4500.5000   797%     -    0s
H    0     0                    -1527.000000 -4500.5000   195%     -    0s
H    0     0                    -1664.000000 -4500.5000   170%     -    0s
     0     0 -3091.2500    0  216 -1664.0000 -3091.2500  85.8%     -    0s
H    0     0                    -2245.000000 -3091.2500  37.7%     -    0s
H    0     0                    -2295.000000 -3091.2500  34.7%     -    0s
H    0     0                    -2348.000000 -3091.2500  31.7%     -    0s
     0     0 -2820.5000    0   96 -2348.0000 -2820.5000  20.1%     -    0s
     0     0 -2795.0000    0   88 -2348.0000 -2795.0000  19.0%     -    0s
     0     0 -2788.0000    0  114 -2348.0000 -2788.0000  18.7%     -    0s
     0     0 -2788.0000    0  114 -2348.0000 -2788.0000  18.7%     -    0s
H    0     0                    -2571.000000 -2788.0000  8.44%     -    0s
H    0     0                    -2685.000000 -2788.0000  3.84%     -    0s
     0     2 -2788.0000    0  114 -2685.0000 -2788.0000  3.84%     -    0s
*    6     6               3    -2763.000000 -2779.0000  0.58%  21.3    0s

Cutting planes:
  Gomory: 2
  MIR: 192
  Zero half: 30

Explored 15 nodes (1256 simplex iterations) in 0.12 seconds
Thread count was 8 (of 8 available processors)

Solution count 9: -2763 -2685 -2571 ... -502

Optimal solution found (tolerance 0.00e+00)
Best objective -2.763000000000e+03, best bound -2.763000000000e+03, gap 0.0000%

Gurobi 7.5.1 (linux64, Python) logging started Tue Dec 19 15:43:44 2017

Academic license - for non-commercial use only
Changed value of parameter Presolve to 2
   Prev: -1  Min: -1  Max: 2  Default: -1
Changed value of parameter MIPGap to 0.0
   Prev: 0.0001  Min: 0.0  Max: 1e+100  Default: 0.0001
Optimize a model with 340 rows, 416 columns and 1087 nonzeros
Variable types: 1 continuous, 415 integer (415 binary)
Coefficient statistics:
  Matrix range     [1e+00, 1e+00]
  Objective range  [1e+00, 3e+02]
  Bounds range     [1e+00, 1e+00]
  RHS range        [1e+00, 4e+01]
Found heuristic solution: objective -502
Presolve removed 3 rows and 1 columns
Presolve time: 0.00s
Presolved: 337 rows, 415 columns, 1087 nonzeros
Variable types: 0 continuous, 415 integer (415 binary)
Presolved: 337 rows, 415 columns, 1087 nonzeros


Root relaxation: objective -4.500500e+03, 140 iterations, 0.00 seconds

    Nodes    |    Current Node    |     Objective Bounds      |     Work
 Expl Unexpl |  Obj  Depth IntInf | Incumbent    BestBd   Gap | It/Node Time

     0     0 -4500.5000    0   78 -502.00000 -4500.5000   797%     -    0s
H    0     0                    -1527.000000 -4500.5000   195%     -    0s
H    0     0                    -1664.000000 -4500.5000   170%     -    0s
     0     0 -3091.2500    0  216 -1664.0000 -3091.2500  85.8%     -    0s
H    0     0                    -2245.000000 -3091.2500  37.7%     -    0s
H    0     0                    -2295.000000 -3091.2500  34.7%     -    0s
H    0     0                    -2348.000000 -3091.2500  31.7%     -    0s
     0     0 -2820.5000    0   96 -2348.0000 -2820.5000  20.1%     -    0s
     0     0 -2795.0000    0   88 -2348.0000 -2795.0000  19.0%     -    0s
     0     0 -2788.0000    0  114 -2348.0000 -2788.0000  18.7%     -    0s
     0     0 -2788.0000    0  114 -2348.0000 -2788.0000  18.7%     -    0s
H    0     0                    -2571.000000 -2788.0000  8.44%     -    0s
H    0     0                    -2685.000000 -2788.0000  3.84%     -    0s
     0     2 -2788.0000    0  114 -2685.0000 -2788.0000  3.84%     -    0s
*    6     6               3    -2763.000000 -2779.0000  0.58%  21.3    0s

Cutting planes:
  Gomory: 2
  MIR: 192
  Zero half: 30

Explored 15 nodes (1256 simplex iterations) in 0.13 seconds
Thread count was 8 (of 8 available processors)

Solution count 9: -2763 -2685 -2571 ... -502

Optimal solution found (tolerance 0.00e+00)
Best objective -2.763000000000e+03, best bound -2.763000000000e+03, gap 0.0000%

Gurobi 7.5.1 (linux64, Python) logging started Tue Dec 19 15:43:57 2017

Academic license - for non-commercial use only
Changed value of parameter Presolve to 2
   Prev: -1  Min: -1  Max: 2  Default: -1
Changed value of parameter MIPGap to 0.0
   Prev: 0.0001  Min: 0.0  Max: 1e+100  Default: 0.0001
Optimize a model with 340 rows, 416 columns and 1087 nonzeros
Variable types: 1 continuous, 415 integer (415 binary)
Coefficient statistics:
  Matrix range     [1e+00, 1e+00]
  Objective range  [1e+00, 3e+02]
  Bounds range     [1e+00, 1e+00]
  RHS range        [1e+00, 4e+01]
Found heuristic solution: objective -502
Presolve removed 3 rows and 1 columns
Presolve time: 0.00s
Presolved: 337 rows, 415 columns, 1087 nonzeros
Variable types: 0 continuous, 415 integer (415 binary)
Presolved: 337 rows, 415 columns, 1087 nonzeros


Root relaxation: objective -4.500500e+03, 140 iterations, 0.00 seconds

    Nodes    |    Current Node    |     Objective Bounds      |     Work
 Expl Unexpl |  Obj  Depth IntInf | Incumbent    BestBd   Gap | It/Node Time

     0     0 -4500.5000    0   78 -502.00000 -4500.5000   797%     -    0s
H    0     0                    -1527.000000 -4500.5000   195%     -    0s
H    0     0                    -1664.000000 -4500.5000   170%     -    0s
     0     0 -3091.2500    0  216 -1664.0000 -3091.2500  85.8%     -    0s
H    0     0                    -2245.000000 -3091.2500  37.7%     -    0s
H    0     0                    -2295.000000 -3091.2500  34.7%     -    0s
H    0     0                    -2348.000000 -3091.2500  31.7%     -    0s
     0     0 -2820.5000    0   96 -2348.0000 -2820.5000  20.1%     -    0s
     0     0 -2795.0000    0   88 -2348.0000 -2795.0000  19.0%     -    0s
     0     0 -2788.0000    0  114 -2348.0000 -2788.0000  18.7%     -    0s
     0     0 -2788.0000    0  114 -2348.0000 -2788.0000  18.7%     -    0s
H    0     0                    -2571.000000 -2788.0000  8.44%     -    0s
H    0     0                    -2685.000000 -2788.0000  3.84%     -    0s
     0     2 -2788.0000    0  114 -2685.0000 -2788.0000  3.84%     -    0s
*    6     6               3    -2763.000000 -2779.0000  0.58%  21.3    0s

Cutting planes:
  Gomory: 2
  MIR: 192
  Zero half: 30

Explored 15 nodes (1256 simplex iterations) in 0.13 seconds
Thread count was 8 (of 8 available processors)

Solution count 9: -2763 -2685 -2571 ... -502

Optimal solution found (tolerance 0.00e+00)
Best objective -2.763000000000e+03, best bound -2.763000000000e+03, gap 0.0000%

Gurobi 7.5.1 (linux64, Python) logging started Tue Dec 19 15:44:10 2017

Academic license - for non-commercial use only
Changed value of parameter Presolve to 2
   Prev: -1  Min: -1  Max: 2  Default: -1
Changed value of parameter MIPGap to 0.0
   Prev: 0.0001  Min: 0.0  Max: 1e+100  Default: 0.0001
Optimize a model with 340 rows, 416 columns and 1087 nonzeros
Variable types: 1 continuous, 415 integer (415 binary)
Coefficient statistics:
  Matrix range     [1e+00, 1e+00]
  Objective range  [1e+00, 3e+02]
  Bounds range     [1e+00, 1e+00]
  RHS range        [1e+00, 4e+01]
Found heuristic solution: objective -502
Presolve removed 3 rows and 1 columns
Presolve time: 0.00s
Presolved: 337 rows, 415 columns, 1087 nonzeros
Variable types: 0 continuous, 415 integer (415 binary)
Presolved: 337 rows, 415 columns, 1087 nonzeros


Root relaxation: objective -4.500500e+03, 140 iterations, 0.00 seconds

    Nodes    |    Current Node    |     Objective Bounds      |     Work
 Expl Unexpl |  Obj  Depth IntInf | Incumbent    BestBd   Gap | It/Node Time

     0     0 -4500.5000    0   78 -502.00000 -4500.5000   797%     -    0s
H    0     0                    -1527.000000 -4500.5000   195%     -    0s
H    0     0                    -1664.000000 -4500.5000   170%     -    0s
     0     0 -3091.2500    0  216 -1664.0000 -3091.2500  85.8%     -    0s
H    0     0                    -2245.000000 -3091.2500  37.7%     -    0s
H    0     0                    -2295.000000 -3091.2500  34.7%     -    0s
H    0     0                    -2348.000000 -3091.2500  31.7%     -    0s
     0     0 -2820.5000    0   96 -2348.0000 -2820.5000  20.1%     -    0s
     0     0 -2795.0000    0   88 -2348.0000 -2795.0000  19.0%     -    0s
     0     0 -2788.0000    0  114 -2348.0000 -2788.0000  18.7%     -    0s
     0     0 -2788.0000    0  114 -2348.0000 -2788.0000  18.7%     -    0s
H    0     0                    -2571.000000 -2788.0000  8.44%     -    0s
H    0     0                    -2685.000000 -2788.0000  3.84%     -    0s
     0     2 -2788.0000    0  114 -2685.0000 -2788.0000  3.84%     -    0s
*    6     6               3    -2763.000000 -2779.0000  0.58%  21.3    0s

Cutting planes:
  Gomory: 2
  MIR: 192
  Zero half: 30

Explored 15 nodes (1256 simplex iterations) in 0.13 seconds
Thread count was 8 (of 8 available processors)

Solution count 9: -2763 -2685 -2571 ... -502

Optimal solution found (tolerance 0.00e+00)
Best objective -2.763000000000e+03, best bound -2.763000000000e+03, gap 0.0000%

Gurobi 7.5.1 (linux64, Python) logging started Tue Dec 19 15:44:19 2017

Academic license - for non-commercial use only
Changed value of parameter Presolve to 2
   Prev: -1  Min: -1  Max: 2  Default: -1
Changed value of parameter MIPGap to 0.0
   Prev: 0.0001  Min: 0.0  Max: 1e+100  Default: 0.0001
Optimize a model with 340 rows, 416 columns and 1087 nonzeros
Variable types: 1 continuous, 415 integer (415 binary)
Coefficient statistics:
  Matrix range     [1e+00, 1e+00]
  Objective range  [1e+00, 3e+02]
  Bounds range     [1e+00, 1e+00]
  RHS range        [1e+00, 4e+01]
Found heuristic solution: objective -502
Presolve removed 3 rows and 1 columns
Presolve time: 0.00s
Presolved: 337 rows, 415 columns, 1087 nonzeros
Variable types: 0 continuous, 415 integer (415 binary)
Presolved: 337 rows, 415 columns, 1087 nonzeros


Root relaxation: objective -4.500500e+03, 140 iterations, 0.00 seconds

    Nodes    |    Current Node    |     Objective Bounds      |     Work
 Expl Unexpl |  Obj  Depth IntInf | Incumbent    BestBd   Gap | It/Node Time

     0     0 -4500.5000    0   78 -502.00000 -4500.5000   797%     -    0s
H    0     0                    -1527.000000 -4500.5000   195%     -    0s
H    0     0                    -1664.000000 -4500.5000   170%     -    0s
     0     0 -3091.2500    0  216 -1664.0000 -3091.2500  85.8%     -    0s
H    0     0                    -2245.000000 -3091.2500  37.7%     -    0s
H    0     0                    -2295.000000 -3091.2500  34.7%     -    0s
H    0     0                    -2348.000000 -3091.2500  31.7%     -    0s
     0     0 -2820.5000    0   96 -2348.0000 -2820.5000  20.1%     -    0s
     0     0 -2795.0000    0   88 -2348.0000 -2795.0000  19.0%     -    0s
     0     0 -2788.0000    0  114 -2348.0000 -2788.0000  18.7%     -    0s
     0     0 -2788.0000    0  114 -2348.0000 -2788.0000  18.7%     -    0s
H    0     0                    -2571.000000 -2788.0000  8.44%     -    0s
H    0     0                    -2685.000000 -2788.0000  3.84%     -    0s
     0     2 -2788.0000    0  114 -2685.0000 -2788.0000  3.84%     -    0s
*    6     6               3    -2763.000000 -2779.0000  0.58%  21.3    0s

Cutting planes:
  Gomory: 2
  MIR: 192
  Zero half: 30

Explored 15 nodes (1256 simplex iterations) in 0.12 seconds
Thread count was 8 (of 8 available processors)

Solution count 9: -2763 -2685 -2571 ... -502

Optimal solution found (tolerance 0.00e+00)
Best objective -2.763000000000e+03, best bound -2.763000000000e+03, gap 0.0000%

Gurobi 7.5.1 (linux64, Python) logging started Tue Dec 19 15:44:51 2017

Academic license - for non-commercial use only
Changed value of parameter Presolve to 2
   Prev: -1  Min: -1  Max: 2  Default: -1
Changed value of parameter MIPGap to 0.0
   Prev: 0.0001  Min: 0.0  Max: 1e+100  Default: 0.0001
Optimize a model with 340 rows, 416 columns and 1087 nonzeros
Variable types: 1 continuous, 415 integer (415 binary)
Coefficient statistics:
  Matrix range     [1e+00, 1e+00]
  Objective range  [1e+00, 3e+02]
  Bounds range     [1e+00, 1e+00]
  RHS range        [1e+00, 4e+01]
Found heuristic solution: objective -502
Presolve removed 3 rows and 1 columns
Presolve time: 0.00s
Presolved: 337 rows, 415 columns, 1087 nonzeros
Variable types: 0 continuous, 415 integer (415 binary)
Presolved: 337 rows, 415 columns, 1087 nonzeros


Root relaxation: objective -4.500500e+03, 140 iterations, 0.00 seconds

    Nodes    |    Current Node    |     Objective Bounds      |     Work
 Expl Unexpl |  Obj  Depth IntInf | Incumbent    BestBd   Gap | It/Node Time

     0     0 -4500.5000    0   78 -502.00000 -4500.5000   797%     -    0s
H    0     0                    -1527.000000 -4500.5000   195%     -    0s
H    0     0                    -1664.000000 -4500.5000   170%     -    0s
     0     0 -3091.2500    0  216 -1664.0000 -3091.2500  85.8%     -    0s
H    0     0                    -2245.000000 -3091.2500  37.7%     -    0s
H    0     0                    -2295.000000 -3091.2500  34.7%     -    0s
H    0     0                    -2348.000000 -3091.2500  31.7%     -    0s
     0     0 -2820.5000    0   96 -2348.0000 -2820.5000  20.1%     -    0s
     0     0 -2795.0000    0   88 -2348.0000 -2795.0000  19.0%     -    0s
     0     0 -2788.0000    0  114 -2348.0000 -2788.0000  18.7%     -    0s
     0     0 -2788.0000    0  114 -2348.0000 -2788.0000  18.7%     -    0s
H    0     0                    -2571.000000 -2788.0000  8.44%     -    0s
H    0     0                    -2685.000000 -2788.0000  3.84%     -    0s
     0     2 -2788.0000    0  114 -2685.0000 -2788.0000  3.84%     -    0s
*    6     6               3    -2763.000000 -2779.0000  0.58%  21.3    0s

Cutting planes:
  Gomory: 2
  MIR: 192
  Zero half: 30

Explored 15 nodes (1256 simplex iterations) in 0.13 seconds
Thread count was 8 (of 8 available processors)

Solution count 9: -2763 -2685 -2571 ... -502

Optimal solution found (tolerance 0.00e+00)
Best objective -2.763000000000e+03, best bound -2.763000000000e+03, gap 0.0000%

Gurobi 7.5.1 (linux64, Python) logging started Tue Dec 19 15:45:03 2017

Academic license - for non-commercial use only
Changed value of parameter Presolve to 2
   Prev: -1  Min: -1  Max: 2  Default: -1
Changed value of parameter MIPGap to 0.0
   Prev: 0.0001  Min: 0.0  Max: 1e+100  Default: 0.0001
Optimize a model with 340 rows, 416 columns and 1087 nonzeros
Variable types: 1 continuous, 415 integer (415 binary)
Coefficient statistics:
  Matrix range     [1e+00, 1e+00]
  Objective range  [1e+00, 3e+02]
  Bounds range     [1e+00, 1e+00]
  RHS range        [1e+00, 4e+01]
Found heuristic solution: objective -502
Presolve removed 3 rows and 1 columns
Presolve time: 0.00s
Presolved: 337 rows, 415 columns, 1087 nonzeros
Variable types: 0 continuous, 415 integer (415 binary)
Presolved: 337 rows, 415 columns, 1087 nonzeros


Root relaxation: objective -4.500500e+03, 140 iterations, 0.00 seconds

    Nodes    |    Current Node    |     Objective Bounds      |     Work
 Expl Unexpl |  Obj  Depth IntInf | Incumbent    BestBd   Gap | It/Node Time

     0     0 -4500.5000    0   78 -502.00000 -4500.5000   797%     -    0s
H    0     0                    -1527.000000 -4500.5000   195%     -    0s
H    0     0                    -1664.000000 -4500.5000   170%     -    0s
     0     0 -3091.2500    0  216 -1664.0000 -3091.2500  85.8%     -    0s
H    0     0                    -2245.000000 -3091.2500  37.7%     -    0s
H    0     0                    -2295.000000 -3091.2500  34.7%     -    0s
H    0     0                    -2348.000000 -3091.2500  31.7%     -    0s
     0     0 -2820.5000    0   96 -2348.0000 -2820.5000  20.1%     -    0s
     0     0 -2795.0000    0   88 -2348.0000 -2795.0000  19.0%     -    0s
     0     0 -2788.0000    0  114 -2348.0000 -2788.0000  18.7%     -    0s
     0     0 -2788.0000    0  114 -2348.0000 -2788.0000  18.7%     -    0s
H    0     0                    -2571.000000 -2788.0000  8.44%     -    0s
H    0     0                    -2685.000000 -2788.0000  3.84%     -    0s
     0     2 -2788.0000    0  114 -2685.0000 -2788.0000  3.84%     -    0s
*    6     6               3    -2763.000000 -2779.0000  0.58%  21.3    0s

Cutting planes:
  Gomory: 2
  MIR: 192
  Zero half: 30

Explored 15 nodes (1256 simplex iterations) in 0.13 seconds
Thread count was 8 (of 8 available processors)

Solution count 9: -2763 -2685 -2571 ... -502

Optimal solution found (tolerance 0.00e+00)
Best objective -2.763000000000e+03, best bound -2.763000000000e+03, gap 0.0000%
